\ SCIP STATISTICS
\   Problem name     : t_mas74
\   Variables        : 151 (150 binary, 0 integer, 0 implicit integer, 1 continuous)
\   Constraints      : 13
Minimize
 Obj: +1e-05 t_x149 +1e-05 t_x1 +1e-05 t_x2 +1e-05 t_x3 +1e-05 t_x4 +1e-05 t_x5 +1e-05 t_x6 +1e-05 t_x7
      +1e-05 t_x8 +1e-05 t_x9 +1e-05 t_x10 +1e-05 t_x11 +1e-05 t_x12 +1e-05 t_x13 +1e-05 t_x14 +1e-05 t_x15
      +1e-05 t_x16 +1e-05 t_x17 +1e-05 t_x18 +1e-05 t_x19 +1e-05 t_x20 +1e-05 t_x21 +1e-05 t_x22 +1e-05 t_x23
      +1e-05 t_x24 +1e-05 t_x25 +1e-05 t_x26 +1e-05 t_x27 +1e-05 t_x28 +1e-05 t_x29 +1e-05 t_x30 +1e-05 t_x31
      +1e-05 t_x32 +1e-05 t_x33 +1e-05 t_x34 +1e-05 t_x35 +1e-05 t_x36 +1e-05 t_x37 +1e-05 t_x38 +1e-05 t_x39
      +1e-05 t_x40 +1e-05 t_x41 +1e-05 t_x42 +1e-05 t_x43 +1e-05 t_x44 +1e-05 t_x45 +1e-05 t_x46 +1e-05 t_x47
      +1e-05 t_x48 +1e-05 t_x49 +1e-05 t_x50 +1e-05 t_x51 +1e-05 t_x52 +1e-05 t_x53 +1e-05 t_x54 +1e-05 t_x55
      +1e-05 t_x56 +1e-05 t_x57 +1e-05 t_x58 +1e-05 t_x59 +1e-05 t_x60 +1e-05 t_x61 +1e-05 t_x62 +1e-05 t_x63
      +1e-05 t_x64 +1e-05 t_x65 +1e-05 t_x66 +1e-05 t_x67 +1e-05 t_x68 +1e-05 t_x69 +1e-05 t_x70 +1e-05 t_x71
      +1e-05 t_x72 +1e-05 t_x73 +1e-05 t_x74 +1e-05 t_x75 +1e-05 t_x76 +1e-05 t_x77 +1e-05 t_x78 +1e-05 t_x79
      +1e-05 t_x80 +1e-05 t_x81 +1e-05 t_x82 +1e-05 t_x83 +1e-05 t_x84 +1e-05 t_x85 +1e-05 t_x86 +1e-05 t_x87
      +1e-05 t_x88 +1e-05 t_x89 +1e-05 t_x90 +1e-05 t_x91 +1e-05 t_x92 +1e-05 t_x93 +1e-05 t_x94 +1e-05 t_x95
      +1e-05 t_x96 +1e-05 t_x97 +1e-05 t_x98 +1e-05 t_x99 +1e-05 t_x100 +1e-05 t_x101 +1e-05 t_x102 +1e-05 t_x103
      +1e-05 t_x104 +1e-05 t_x105 +1e-05 t_x106 +1e-05 t_x107 +1e-05 t_x108 +1e-05 t_x109 +1e-05 t_x110
      +1e-05 t_x111 +1e-05 t_x112 +1e-05 t_x113 +1e-05 t_x114 +1e-05 t_x115 +1e-05 t_x116 +1e-05 t_x117
      +1e-05 t_x118 +1e-05 t_x119 +1e-05 t_x120 +1e-05 t_x121 +1e-05 t_x122 +1e-05 t_x123 +1e-05 t_x124
      +1e-05 t_x125 +1e-05 t_x126 +1e-05 t_x127 +1e-05 t_x128 +1e-05 t_x129 +1e-05 t_x130 +1e-05 t_x131
      +1e-05 t_x132 +1e-05 t_x133 +1e-05 t_x134 +1e-05 t_x135 +1e-05 t_x136 +1e-05 t_x137 +1e-05 t_x138
      +1e-05 t_x139 +1e-05 t_x140 +1e-05 t_x141 +1e-05 t_x142 +1e-05 t_x143 +1e-05 t_x144 +1e-05 t_x145
      +1e-05 t_x146 +1e-05 t_x147 +1e-05 t_x148 +1e-05 t_x150 +1 t_x151
Subject to
 c13: +4264 t_x1 +5339 t_x2 +8260 t_x3 +2876 t_x4 +7071.525641 t_x5 +7310 t_x6 +1529 t_x7 +1585 t_x8 +2949 t_x9
  +1239 t_x10 +1239 t_x11 +1431.2820513 t_x12 +4388 t_x13 +7123 t_x15 +3091.3205128 t_x16 +5704 t_x17
  +1144.5384615 t_x18 +8713 t_x19 +2933.5384615 t_x21 +2637 t_x22 +1662.1153846 t_x23 +3647 t_x25 +2501.1474359 t_x26
  +1070.4038462 t_x27 +5649.4038462 t_x28 +1053 t_x29 +2480.7179487 t_x31 +3948 t_x32 +888 t_x34 +3779 t_x36
  +3641 t_x37 +5567 t_x38 +2197 t_x39 +2842 t_x40 +4846 t_x41 +2765.2179487 t_x42 +3261 t_x44 +3553 t_x45
  +2665 t_x46 +2536 t_x50 +2768 t_x51 +3541 t_x52 +8080 t_x53 +759.60897436 t_x54 +5036 t_x55 +1782 t_x56
  +3895 t_x57 +4205 t_x58 +9326 t_x60 +1576.5448718 t_x61 +5355 t_x62 +1919 t_x63 +2995.1025641 t_x65
  +8541 t_x66 +8352 t_x67 +3291 t_x68 +4506 t_x70 +4429 t_x71 +4593 t_x72 +9138 t_x73 +7740.9358974 t_x74
  +7404 t_x75 +4378 t_x76 +3647 t_x77 +3795 t_x78 +2912 t_x79 +390.93589744 t_x80 +5445 t_x81 +8841 t_x84
  +1236 t_x85 +7010 t_x86 +2909 t_x87 +7393 t_x89 +4654 t_x92 +2255 t_x93 +7744 t_x95 +2054 t_x96 +1696.5128205 t_x97
  +3234 t_x98 +2842 t_x99 +2670.2820513 t_x100 +3624 t_x101 +2246 t_x103 +2633 t_x105 +691 t_x106 +2923 t_x107
  +6318 t_x108 +1402.1282051 t_x109 +4579 t_x110 +3445 t_x111 +3648.6794872 t_x112 +4719.0833333 t_x113
  +2068.8974359 t_x115 +1920.724359 t_x116 +1741.5064103 t_x118 +899.94871795 t_x119 +7152 t_x120 +3555.5641026 t_x121
  +7850 t_x123 +6863 t_x124 +7943.6794872 t_x125 +2933 t_x126 +2665 t_x127 +4063 t_x128 +6355.8974359 t_x129
  +1966 t_x130 +4540 t_x131 +1370 t_x132 +9376 t_x134 +816.93589744 t_x135 +1996 t_x136 +5320 t_x137 +1376.7820513 t_x138
  +1645 t_x139 +433 t_x140 +4920 t_x141 +3647 t_x144 +1582 t_x145 +3939 t_x146 +6295 t_x147 +8177 t_x148
  +9936 t_x150 +1 t_x151 >= +94358.5
 c12: +1530.2702703 t_x1 +2876 t_x4 +6622.5405405 t_x5 +1529 t_x7 +1585 t_x8 +2949 t_x9 +2091.1486486 t_x10
  +1239 t_x11 +5210 t_x12 +2116.7297297 t_x13 +8037 t_x14 +421.86486486 t_x16 +5704 t_x17 +1582 t_x18
  +4035 t_x21 +2637 t_x22 +1313 t_x23 +3647 t_x25 +421.86486486 t_x26 +2940.1756757 t_x27 +1053 t_x29
  +1053 t_x30 +5287 t_x31 +3948 t_x32 +5488.7162162 t_x34 +4446.6621622 t_x35 +3779 t_x36 +3641 t_x37
  +4894.9189189 t_x38 +2197 t_x39 +2103.3243243 t_x40 +4846 t_x41 +4616 t_x42 +8807 t_x43 +3261 t_x44
  +3553 t_x45 +2665 t_x46 +1009.4459459 t_x48 +1009.4459459 t_x49 +2536 t_x50 +2956.6621622 t_x51 +420.66216216 t_x52
  +5036 t_x55 +1782 t_x56 +3895 t_x57 +4205 t_x58 +7772 t_x59 +5919.7837838 t_x60 +5355 t_x62 +1919 t_x63
  +6017.0810811 t_x64 +5188.3918919 t_x65 +7281.4594595 t_x66 +2160.4594595 t_x67 +3291 t_x68 +6739.2972973 t_x69
  +4429 t_x70 +4429 t_x71 +4593 t_x72 +1530.2702703 t_x74 +4615.3378378 t_x75 +1530.2702703 t_x76 +3647 t_x77
  +3795 t_x78 +2912 t_x79 +8830 t_x80 +6112 t_x83 +1236 t_x85 +1324 t_x86 +2909 t_x87 +7393 t_x89 +6396.6621622 t_x90
  +1950 t_x91 +4654 t_x92 +2255 t_x93 +7104 t_x94 +3202.5945946 t_x95 +2054 t_x96 +4613.5135135 t_x97
  +3234 t_x98 +2103.3243243 t_x99 +3974 t_x100 +3624 t_x101 +1582 t_x103 +5392.9324324 t_x104 +732.93243243 t_x105
  +418.45945946 t_x106 +2923 t_x107 +4579 t_x110 +8342 t_x111 +1102 t_x112 +6268 t_x113 +3225.1351351 t_x118
  +1866.4459459 t_x119 +3625.7162162 t_x120 +9136 t_x122 +7850 t_x123 +6863 t_x124 +9356 t_x125 +2933 t_x126
  +2665 t_x127 +4020 t_x128 +1966 t_x130 +4540 t_x131 +1370 t_x132 +4540 t_x134 +1996 t_x136 +1390.0810811 t_x137
  +275 t_x138 +1645 t_x139 +7967.1621622 t_x140 +4920 t_x141 +3561.7972973 t_x142 +2247.6351351 t_x143
  +4970 t_x144 +1582 t_x145 +6146 t_x146 +6295 t_x147 +1942.6756757 t_x148 +9936 t_x150 +1 t_x151 >= +85137
 c11: +4264 t_x1 +5339 t_x2 +4540 t_x3 +2876 t_x4 +6007.4739286 t_x5 +7310 t_x6 +1529 t_x7 +1585 t_x8
  +2949 t_x9 +1239 t_x11 +5164.8090243 t_x12 +1287.8998662 t_x13 +6755.136625 t_x16 +5704 t_x17 +1582 t_x18
  +9232 t_x20 +4600 t_x21 +2637 t_x22 +5166.9799255 t_x23 +1899.2210109 t_x24 +3647 t_x25 +3013.136625 t_x26
  +5571.6006929 t_x27 +1053 t_x29 +2869 t_x30 +3948 t_x32 +6049 t_x33 +3103.6850787 t_x35 +3779 t_x36
  +3641 t_x37 +5567 t_x38 +2197 t_x39 +2842 t_x40 +4846 t_x41 +4616 t_x42 +8807 t_x43 +3261 t_x44 +3553 t_x45
  +5239 t_x46 +6665 t_x47 +8172 t_x48 +3203.5967077 t_x49 +2536 t_x50 +8080 t_x53 +6767 t_x54 +5036 t_x55
  +1782 t_x56 +3895 t_x57 +4205 t_x58 +7772 t_x59 +4961.8312283 t_x60 +2536 t_x61 +5355 t_x62 +1919 t_x63
  +5846.2742077 t_x64 +7341 t_x65 +7926.8090243 t_x66 +8352 t_x67 +3291 t_x68 +7328 t_x69 +4506 t_x70
  +4429 t_x71 +4593 t_x72 +2864.5421929 t_x73 +3452.764849 t_x74 +4126.5871636 t_x75 +4378 t_x76 +3647 t_x77
  +3795 t_x78 +2912 t_x79 +5445 t_x81 +1236 t_x85 +7010 t_x86 +2909 t_x87 +7622 t_x88 +5053.6850787 t_x90
  +1950 t_x91 +1188 t_x92 +2255 t_x93 +7104 t_x94 +7744 t_x95 +2054 t_x96 +6682 t_x97 +3234 t_x98 +2842 t_x99
  +3974 t_x100 +3624 t_x101 +2246 t_x103 +5312.3064276 t_x104 +2633 t_x105 +4655 t_x106 +2923 t_x107 +6318 t_x108
  +4579 t_x110 +8342 t_x111 +5050 t_x112 +4575.3149213 t_x113 +7133 t_x114 +5180 t_x115 +4876 t_x116 +1899.2210109 t_x117
  +4922 t_x118 +2057.4578071 t_x119 +7056 t_x121 +7850 t_x123 +5319.7567851 t_x125 +2933 t_x126 +2665 t_x127
  +4063 t_x128 +7502 t_x129 +1966 t_x130 +4540 t_x131 +1370 t_x132 +7435.893535 t_x133 +4802.8550525 t_x135
  +1996 t_x136 +5320 t_x137 +1645 t_x139 +3400.7613107 t_x140 +4920 t_x141 +8107 t_x142 +4970 t_x144 +1582 t_x145
  +6146 t_x146 +4239.4996656 t_x147 +5869.4915429 t_x148 +9936 t_x150 +1 t_x151 >= +97934
 c10: +4836 t_x149 +4264 t_x1 +5339 t_x2 +2876 t_x4 +5706.6236192 t_x5 +1529 t_x7 +1585 t_x8 +2949 t_x9
  +7097 t_x10 +1239 t_x11 +3270.405833 t_x13 +8037 t_x14 +6814.5238232 t_x16 +5704 t_x17 +1582 t_x18 +8713 t_x19
  +9232 t_x20 +4600 t_x21 +2637 t_x22 +7131 t_x23 +4652.0215414 t_x24 +3647 t_x25 +3891.5238232 t_x26
  +5039.7045485 t_x27 +1053 t_x29 +2869 t_x30 +5410 t_x31 +3948 t_x32 +6049 t_x33 +6880 t_x35 +3779 t_x36
  +3641 t_x37 +1477.4963355 t_x38 +2197 t_x39 +2842 t_x40 +4846 t_x41 +4616 t_x42 +8807 t_x43 +3261 t_x44
  +3553 t_x45 +5239 t_x46 +8172 t_x48 +8425 t_x49 +2536 t_x50 +8013 t_x51 +3541 t_x52 +8080 t_x53 +2672.975731 t_x54
  +5036 t_x55 +1782 t_x56 +3895 t_x57 +4205 t_x58 +2726.2276162 t_x59 +3171.9293238 t_x60 +4757 t_x61
  +5355 t_x62 +1919 t_x63 +4389.7373933 t_x64 +3291 t_x68 +4506 t_x70 +4429 t_x71 +4593 t_x72 +4769.9270193 t_x73
  +560.5962977 t_x74 +3402.5962977 t_x75 +4378 t_x76 +3647 t_x77 +3795 t_x78 +2912 t_x79 +8830 t_x80 +6112 t_x83
  +8841 t_x84 +1236 t_x85 +7010 t_x86 +2909 t_x87 +7622 t_x88 +7393 t_x89 +4727.2211862 t_x90 +1950 t_x91
  +4654 t_x92 +2255 t_x93 +6114.1385266 t_x94 +2054 t_x96 +3234 t_x98 +2842 t_x99 +3974 t_x100 +3624 t_x101
  +5415 t_x102 +1807.7609822 t_x103 +2633 t_x105 +4655 t_x106 +2923 t_x107 +6318 t_x108 +7440 t_x109 +3472.3863166 t_x110
  +3270.7045485 t_x112 +6268 t_x113 +8570 t_x114 +9838 t_x115 +4624.3962297 t_x116 +4652.0215414 t_x117
  +2886.5022818 t_x118 +3590 t_x119 +7056 t_x121 +4655 t_x123 +6863 t_x124 +2933 t_x126 +2665 t_x127 +4063 t_x128
  +7502 t_x129 +1966 t_x130 +4540 t_x131 +1370 t_x132 +9828 t_x133 +9376 t_x134 +2784.1324972 t_x135 +1996 t_x136
  +2436.2770533 t_x137 +579.50663393 t_x138 +1645 t_x139 +3851.4963355 t_x140 +4920 t_x141 +8107 t_x142
  +6103 t_x143 +4970 t_x144 +1582 t_x145 +956.80938421 t_x146 +6295 t_x147 +5887 t_x150 +1 t_x151 >= +117802.11377
 c9: +4264 t_x1 +5339 t_x2 +8260 t_x3 +2876 t_x4 +6324.0237443 t_x5 +7310 t_x6 +1529 t_x7 +1585 t_x8 +2949 t_x9
  +1239 t_x11 +2669.5520548 t_x12 +3224 t_x13 +8037 t_x14 +721.8803653 t_x16 +5704 t_x17 +1582 t_x18 +8713 t_x19
  +9232 t_x20 +3371 t_x21 +2637 t_x22 +7048.9675799 t_x23 +5007.8803653 t_x24 +3647 t_x25 +2201.1196347 t_x26
  +1631.030137 t_x27 +5880 t_x28 +1053 t_x29 +204.02305936 t_x30 +2678.01621 t_x31 +3948 t_x32 +6049 t_x33
  +9317 t_x34 +4388.8803653 t_x35 +3779 t_x36 +3641 t_x37 +2197 t_x39 +2842 t_x40 +4846 t_x41 +4616 t_x42
  +3261 t_x44 +3553 t_x45 +5239 t_x46 +8172 t_x48 +8425 t_x49 +2536 t_x50 +1351.1242009 t_x51 +3541 t_x52
  +6767 t_x54 +5036 t_x55 +1782 t_x56 +3895 t_x57 +4205 t_x58 +6075.1340183 t_x60 +88.128310502 t_x61
  +5355 t_x62 +1919 t_x63 +8352 t_x67 +3291 t_x68 +4506 t_x70 +4429 t_x71 +4593 t_x72 +1881.3954338 t_x74
  +4723.3954338 t_x75 +4378 t_x76 +3647 t_x77 +3795 t_x78 +2912 t_x79 +8830 t_x80 +5445 t_x81 +6112 t_x83
  +1236 t_x85 +7010 t_x86 +2909 t_x87 +7622 t_x88 +7393 t_x89 +6338.8803653 t_x90 +1950 t_x91 +4654 t_x92
  +2255 t_x93 +7104 t_x94 +7744 t_x95 +2054 t_x96 +6682 t_x97 +3234 t_x98 +2842 t_x99 +3974 t_x100 +3624 t_x101
  +5415 t_x102 +2246 t_x103 +2633 t_x105 +4655 t_x106 +2923 t_x107 +6318 t_x108 +3677.0954338 t_x109 +1172.1497717 t_x110
  +8342 t_x111 +2180.2694064 t_x112 +6268 t_x113 +6425.2703196 t_x114 +4293.1287671 t_x115 +4876 t_x116
  +5007.8803653 t_x117 +4922 t_x118 +3590 t_x119 +7152 t_x120 +9136 t_x122 +4655 t_x123 +9091 t_x125 +2933 t_x126
  +2665 t_x127 +4063 t_x128 +1966 t_x130 +4540 t_x131 +1370 t_x132 +9828 t_x133 +7354 t_x134 +6443 t_x135
  +1996 t_x136 +5320 t_x137 +801.50639269 t_x138 +1645 t_x139 +4920 t_x140 +4920 t_x141 +4475.8803653 t_x142
  +6103 t_x143 +4970 t_x144 +1582 t_x145 +4153.7584475 t_x146 +8641 t_x150 +1 t_x151 >= +105490.73653
 c8: +8742 t_x149 +4264 t_x1 +3236.6488464 t_x2 +8260 t_x3 +2876 t_x4 +6884 t_x6 +1529 t_x7 +1585 t_x8
  +2949 t_x9 +1239 t_x11 +5586.9236606 t_x13 +7123 t_x15 +2980.0315887 t_x16 +4171 t_x17 +1582 t_x18 +3371 t_x21
  +2637 t_x22 +7131 t_x23 +922.29134407 t_x24 +3647 t_x25 +805.25526479 t_x26 +2660.5892304 t_x27 +5880 t_x28
  +1053 t_x29 +2869 t_x30 +5410 t_x31 +3948 t_x32 +9317 t_x34 +1762.3431016 t_x35 +3779 t_x36 +3641 t_x37
  +5567 t_x38 +2197 t_x39 +2842 t_x40 +4846 t_x41 +4616 t_x42 +8807 t_x43 +3261 t_x44 +3553 t_x45 +3338.1665376 t_x46
  +2589.3009446 t_x48 +2589.3009446 t_x49 +2536 t_x50 +6077 t_x51 +3541 t_x52 +257.07955249 t_x54 +5036 t_x55
  +1782 t_x56 +3895 t_x57 +4205 t_x58 +7772 t_x59 +6619.0778105 t_x60 +5355 t_x62 +1919 t_x63 +9948 t_x64
  +7341 t_x65 +6962.5370084 t_x66 +3291 t_x68 +7328 t_x69 +4506 t_x70 +4429 t_x71 +4593 t_x72 +9138 t_x73
  +940.48633478 t_x74 +6731.8123645 t_x75 +2220.491406 t_x76 +3647 t_x77 +3795 t_x78 +2912 t_x79 +6707 t_x80
  +5445 t_x81 +8841 t_x84 +1236 t_x85 +2909 t_x86 +2909 t_x87 +2953.3115129 t_x90 +1950 t_x91 +4654 t_x92
  +2255 t_x93 +7104 t_x94 +7744 t_x95 +2054 t_x96 +1726.1613116 t_x97 +3234 t_x98 +2842 t_x99 +3974 t_x100
  +3624 t_x101 +5415 t_x102 +2246 t_x103 +8590 t_x104 +2633 t_x105 +4655 t_x106 +2923 t_x107 +6318 t_x108
  +7440 t_x109 +4579 t_x110 +2660.5892304 t_x112 +8570 t_x114 +9838 t_x115 +4876 t_x116 +922.29134407 t_x117
  +4922 t_x118 +3590 t_x119 +7152 t_x120 +9136 t_x122 +5952.0905079 t_x123 +2933 t_x126 +2665 t_x127 +4063 t_x128
  +2002.5321694 t_x129 +1966 t_x130 +4540 t_x131 +1370 t_x132 +9828 t_x133 +9376 t_x134 +6443 t_x135 +1996 t_x136
  +5320 t_x137 +6041.6761381 t_x138 +1645 t_x139 +647 t_x140 +4920 t_x141 +4970 t_x144 +1582 t_x145 +6146 t_x146
  +8177 t_x148 +9936 t_x150 +1 t_x151 >= +107309
 c7: +4299.5617978 t_x149 +4264 t_x1 +5339 t_x2 +3489 t_x3 +2876 t_x4 +7310 t_x6 +1529 t_x7 +1585 t_x8
  +2949 t_x9 +5864.7752809 t_x10 +1239 t_x11 +9321.7752809 t_x12 +7919.9662921 t_x13 +8037 t_x14 +2923 t_x16
  +5704 t_x17 +1582 t_x18 +8171.3932584 t_x19 +9232 t_x20 +4600 t_x21 +2637 t_x22 +3525.6966292 t_x23
  +3647 t_x25 +4272.9662921 t_x27 +5880 t_x28 +1053 t_x29 +2869 t_x30 +5410 t_x31 +3948 t_x32 +9317 t_x34
  +2311.7191011 t_x35 +3779 t_x36 +3641 t_x37 +5567 t_x38 +2197 t_x39 +2842 t_x40 +4846 t_x41 +4616 t_x42
  +8807 t_x43 +3261 t_x44 +3553 t_x45 +5239 t_x46 +5877.6685393 t_x48 +4262.3764045 t_x49 +2536 t_x50
  +7090.005618 t_x51 +1074.011236 t_x52 +8080 t_x53 +2240.3595506 t_x54 +5036 t_x55 +1782 t_x56 +3895 t_x57
  +4205 t_x58 +7106.3258427 t_x59 +7383 t_x60 +3561.488764 t_x61 +2033.3258427 t_x62 +1919 t_x63 +6121.0505618 t_x64
  +8541 t_x66 +3291 t_x68 +4429 t_x70 +4429 t_x71 +4081.3146067 t_x72 +4272.9662921 t_x73 +7999.5842697 t_x74
  +5324.3033708 t_x75 +4378 t_x76 +3647 t_x77 +3795 t_x78 +2559.6067416 t_x79 +2550.0224719 t_x80 +5008.247191 t_x81
  +1236 t_x85 +7010 t_x86 +2909 t_x87 +4261.7191011 t_x90 +1950 t_x91 +4654 t_x92 +117.03370787 t_x93
  +7104 t_x94 +3406.2808989 t_x95 +2054 t_x96 +3234 t_x98 +2675.2808989 t_x99 +3974 t_x100 +3624 t_x101
  +5415 t_x102 +2246 t_x103 +8590 t_x104 +40.747191011 t_x105 +4655 t_x106 +2923 t_x107 +4285.6853933 t_x108
  +6319.247191 t_x109 +4579 t_x110 +8342 t_x111 +3764.0337079 t_x112 +5613.6853933 t_x115 +4876 t_x116
  +3647 t_x118 +625.96629213 t_x119 +7850 t_x123 +6863 t_x124 +9356 t_x125 +2933 t_x126 +2665 t_x127 +4063 t_x128
  +5485.988764 t_x129 +1966 t_x130 +4540 t_x131 +1370 t_x132 +4661.988764 t_x133 +5761.1011236 t_x135
  +1996 t_x136 +5320 t_x137 +3269.2808989 t_x138 +1645 t_x139 +3781.011236 t_x140 +4396.0561798 t_x141
  +8107 t_x142 +4970 t_x144 +1582 t_x145 +4694 t_x146 +1 t_x151 >= +86376
 c6: +8742 t_x149 +4264 t_x1 +5339 t_x2 +2876 t_x4 +9723 t_x5 +1529 t_x7 +1585 t_x8 +2949 t_x9 +1239 t_x11
  +2475 t_x12 +6817.4161987 t_x13 +7123 t_x15 +3754 t_x16 +5704 t_x17 +1582 t_x18 +9232 t_x20 +4035 t_x21
  +2637 t_x22 +7131 t_x23 +5429.5829374 t_x24 +3647 t_x25 +7496 t_x26 +583.5 t_x27 +5162.5 t_x28 +1053 t_x29
  +449.31447084 t_x30 +3240.6855292 t_x31 +3948 t_x32 +6049 t_x33 +9317 t_x34 +1950 t_x35 +3779 t_x36
  +3641 t_x37 +5567 t_x38 +2197 t_x39 +2842 t_x40 +4846 t_x41 +4616 t_x42 +8807 t_x43 +3261 t_x44 +3553 t_x45
  +5239 t_x46 +6665 t_x47 +8172 t_x48 +8425 t_x49 +2536 t_x50 +4869.6696544 t_x51 +3541 t_x52 +8080 t_x53
  +5337.9205184 t_x54 +5036 t_x55 +1782 t_x56 +3895 t_x57 +4205 t_x58 +5256.5 t_x60 +2104.6903888 t_x61
  +1919 t_x63 +4473.0773218 t_x64 +7341 t_x65 +4655 t_x66 +8352 t_x67 +3291 t_x68 +7328 t_x69 +4506 t_x70
  +4429 t_x71 +4593 t_x72 +9138 t_x73 +5052.5596112 t_x74 +1174.3740821 t_x75 +4378 t_x76 +3647 t_x77
  +3795 t_x78 +2912 t_x79 +8830 t_x80 +5445 t_x81 +6112 t_x83 +1236 t_x85 +2909 t_x87 +7393 t_x89 +1950 t_x91
  +4654 t_x92 +2255 t_x93 +2054 t_x96 +3234 t_x98 +2842 t_x99 +3974 t_x100 +3624 t_x101 +5415 t_x102 +2246 t_x103
  +2633 t_x105 +4655 t_x106 +2923 t_x107 +6318 t_x108 +1739 t_x109 +4579 t_x110 +8342 t_x111 +1239 t_x112
  +1822.5 t_x113 +8570 t_x114 +9838 t_x115 +4876 t_x116 +5429.5829374 t_x117 +4922 t_x118 +3590 t_x119
  +7152 t_x120 +6863 t_x124 +9356 t_x125 +2933 t_x126 +2665 t_x127 +4063 t_x128 +1966 t_x130 +4540 t_x131
  +1370 t_x132 +9828 t_x133 +9376 t_x134 +5616.8782937 t_x135 +1996 t_x136 +5320 t_x137 +1358.4934125 t_x138
  +1645 t_x139 +4365 t_x140 +4920 t_x141 +6103 t_x143 +4970 t_x144 +1582 t_x145 +6146 t_x146 +6295 t_x147
  +8177 t_x148 +1 t_x151 >= +107283.94838
 c5: +4264 t_x1 +5026.3323601 t_x2 +4212.5800487 t_x3 +2876 t_x4 +1529 t_x7 +1585 t_x8 +2949 t_x9 +7097 t_x10
  +1239 t_x11 +6449 t_x12 +1673.7990268 t_x13 +8037 t_x14 +7123 t_x15 +4902.0158151 t_x16 +2299.7472019 t_x17
  +1582 t_x18 +8713 t_x19 +4035 t_x21 +2637 t_x22 +7131 t_x23 +2435.796837 t_x24 +3647 t_x25 +1160.0158151 t_x26
  +1850.9749392 t_x27 +5880 t_x28 +1053 t_x29 +1573.9406326 t_x30 +5410 t_x31 +3948 t_x32 +6049 t_x33
  +9317 t_x34 +6880 t_x35 +3779 t_x36 +3641 t_x37 +5567 t_x38 +2197 t_x39 +2842 t_x40 +4846 t_x41 +4616 t_x42
  +3261 t_x44 +3553 t_x45 +2665 t_x46 +6665 t_x47 +4492.4068127 t_x48 +4492.4068127 t_x49 +2536 t_x50
  +3924.9124088 t_x51 +3541 t_x52 +3336.9664234 t_x53 +509.94136253 t_x54 +5036 t_x55 +1782 t_x56 +2066.1187348 t_x57
  +4205 t_x58 +7772 t_x59 +8367.2374696 t_x60 +4757 t_x61 +2978.6437956 t_x62 +1919 t_x63 +7341 t_x65
  +4655 t_x66 +8352 t_x67 +3291 t_x68 +7328 t_x69 +4506 t_x70 +4429 t_x71 +896.82189781 t_x72 +2486.593674 t_x73
  +7925.6586375 t_x74 +1794.7394161 t_x75 +4378 t_x76 +3647 t_x77 +1205.9406326 t_x78 +1205.9406326 t_x79
  +5445 t_x81 +6112 t_x83 +8841 t_x84 +1236 t_x85 +2909 t_x87 +7622 t_x88 +7393 t_x89 +8830 t_x90 +1950 t_x91
  +4654 t_x92 +2255 t_x93 +2054 t_x96 +6682 t_x97 +3234 t_x98 +2842 t_x99 +3974 t_x100 +3624 t_x101 +5415 t_x102
  +1582 t_x103 +8590 t_x104 +2633 t_x105 +4655 t_x106 +2923 t_x107 +6318 t_x108 +4579 t_x110 +81.974939173 t_x112
  +6268 t_x113 +6831.392944 t_x115 +4876 t_x116 +2435.796837 t_x117 +4922 t_x118 +3590 t_x119 +7056 t_x121
  +9136 t_x122 +2933 t_x126 +2665 t_x127 +4063 t_x128 +7502 t_x129 +1966 t_x130 +4540 t_x131 +1370 t_x132
  +6682.7810219 t_x133 +5038.2167883 t_x135 +1996 t_x136 +4660.7472019 t_x137 +6754 t_x138 +1645 t_x139
  +2864.8812652 t_x140 +4920 t_x141 +8107 t_x142 +6103 t_x143 +4970 t_x144 +1582 t_x145 +5403.1975669 t_x147
  +3640.0593674 t_x148 +1 t_x151 >= +107767
 c4: +8641 t_x149 +4264 t_x1 +5339 t_x2 +5876.7923949 t_x3 +2876 t_x4 +9723 t_x5 +7310 t_x6 +1529 t_x7
  +1585 t_x8 +2949 t_x9 +7097 t_x10 +1239 t_x11 +3263.9478854 t_x12 +4787.9998652 t_x13 +3932.0774689 t_x15
  +4508 t_x16 +5383.2865918 t_x17 +1007.7206724 t_x18 +8713 t_x19 +9232 t_x20 +3733.6777996 t_x21 +2637 t_x22
  +2622.9478854 t_x23 +5572.0948907 t_x24 +3647 t_x25 +8494 t_x26 +1590.9888423 t_x27 +5880 t_x28 +1053 t_x29
  +2869 t_x30 +5410 t_x31 +3948 t_x32 +6049 t_x33 +1928.2865918 t_x35 +3779 t_x36 +3641 t_x37 +5567 t_x38
  +2197 t_x39 +2842 t_x40 +4846 t_x41 +4616 t_x42 +8807 t_x43 +3261 t_x44 +3553 t_x45 +5239 t_x46 +6665 t_x47
  +8172 t_x48 +5587.4533223 t_x49 +2536 t_x50 +509.74314193 t_x52 +5130.4842654 t_x54 +5036 t_x55 +1782 t_x56
  +476.85677148 t_x57 +4205 t_x58 +2026.2568581 t_x61 +5355 t_x62 +1919 t_x63 +3652.6973102 t_x64 +8541 t_x66
  +8352 t_x67 +3291 t_x68 +4506 t_x70 +4429 t_x71 +4593 t_x72 +6903.6330621 t_x73 +4972.5996947 t_x74
  +4006.8453527 t_x75 +4378 t_x76 +3647 t_x77 +3795 t_x78 +2912 t_x79 +5445 t_x81 +6112 t_x83 +8841 t_x84
  +1236 t_x85 +7010 t_x86 +1599.0521146 t_x87 +7622 t_x88 +1950 t_x91 +4654 t_x92 +2255 t_x93 +7104 t_x94
  +7744 t_x95 +2054 t_x96 +6682 t_x97 +3234 t_x98 +2842 t_x99 +3974 t_x100 +3624 t_x101 +5415 t_x102 +2246 t_x103
  +8590 t_x104 +2633 t_x105 +4655 t_x106 +2923 t_x107 +5080.614002 t_x109 +4579 t_x110 +4677.0111577 t_x112
  +6268 t_x113 +2157.614002 t_x116 +5572.0948907 t_x117 +4922 t_x118 +3590 t_x119 +7152 t_x120 +7056 t_x121
  +9136 t_x122 +7850 t_x123 +6863 t_x124 +9356 t_x125 +2933 t_x126 +2665 t_x127 +4063 t_x128 +7502 t_x129
  +1966 t_x130 +4540 t_x131 +1370 t_x132 +9376 t_x134 +6443 t_x135 +1996 t_x136 +5320 t_x137 +2524.7428057 t_x138
  +1645 t_x139 +499.32083911 t_x140 +4920 t_x141 +6103 t_x143 +4970 t_x144 +1007.7206724 t_x145 +6146 t_x146
  +6295 t_x147 +1 t_x151 >= +113089.95355
 c3: +6015.5 t_x149 +4264 t_x1 +5339 t_x2 +7227.5 t_x3 +2876 t_x4 +7310 t_x6 +1529 t_x7 +1585 t_x8 +2949 t_x9
  +5404.8448466 t_x10 +1239 t_x11 +8128.2443156 t_x12 +2473.8400699 t_x13 +8037 t_x14 +7123 t_x15 +5704 t_x17
  +1582 t_x18 +4035 t_x21 +2637 t_x22 +2505.925667 t_x23 +9861 t_x24 +3647 t_x25 +5478.2871361 t_x26 +5665.9031945 t_x27
  +5880 t_x28 +1053 t_x29 +2869 t_x30 +5410 t_x31 +3948 t_x32 +6049 t_x33 +6880 t_x35 +3779 t_x36 +3641 t_x37
  +5567 t_x38 +2197 t_x39 +1164.8704111 t_x40 +4846 t_x41 +139.72342842 t_x42 +3261 t_x44 +3553 t_x45
  +5239 t_x46 +6665 t_x47 +1655.7848997 t_x48 +1655.7848997 t_x49 +2536 t_x50 +8013 t_x51 +3541 t_x52
  +8080 t_x53 +2778.8438922 t_x54 +5036 t_x55 +1782 t_x56 +1724.2205458 t_x57 +7772 t_x59 +4757 t_x61
  +1919 t_x63 +8722.393681 t_x64 +7341 t_x65 +3291 t_x68 +7328 t_x69 +4506 t_x70 +4429 t_x71 +4593 t_x72
  +4857.7089899 t_x74 +7404 t_x75 +4378 t_x76 +3647 t_x77 +3795 t_x78 +2912 t_x79 +7601.2456701 t_x80
  +5445 t_x81 +6112 t_x83 +1236 t_x85 +7010 t_x86 +2909 t_x87 +5342.1452962 t_x88 +7393 t_x89 +6883.3314132 t_x90
  +1950 t_x91 +4654 t_x92 +2255 t_x93 +7104 t_x94 +7435.0469687 t_x95 +2054 t_x96 +6682 t_x97 +3234 t_x98
  +1164.8704111 t_x99 +3974 t_x100 +3624 t_x101 +5415 t_x102 +1582 t_x103 +2633 t_x105 +4655 t_x106 +2923 t_x107
  +6318 t_x108 +7440 t_x109 +4579 t_x110 +8342 t_x111 +5050 t_x112 +6268 t_x113 +8570 t_x114 +4876 t_x116
  +9861 t_x117 +4922 t_x118 +3590 t_x119 +7152 t_x120 +7056 t_x121 +4655 t_x123 +6863 t_x124 +2933 t_x126
  +2665 t_x127 +4063 t_x128 +4120.6364834 t_x129 +1966 t_x130 +4540 t_x131 +1370 t_x132 +2379.6660405 t_x135
  +1996 t_x136 +5320 t_x137 +5533.7993219 t_x138 +1645 t_x139 +4365 t_x140 +4920 t_x141 +8107 t_x142 +6103 t_x143
  +4970 t_x144 +1582 t_x145 +6146 t_x146 +6295 t_x147 +8177 t_x148 +9936 t_x150 +1 t_x151 >= +110007.77718
 c2: +5339 t_x149 +3857.5340376 t_x1 +125.76760563 t_x2 +7165.7769953 t_x3 +2876 t_x4 +9723 t_x5 +7310 t_x6
  +1529 t_x7 +1585 t_x8 +2949 t_x9 +7097 t_x10 +1239 t_x11 +6449 t_x12 +4596.07277 t_x13 +8037 t_x14 +7123 t_x15
  +8067 t_x16 +5704 t_x17 +1582 t_x18 +8713 t_x19 +9232 t_x20 +3371 t_x21 +2637 t_x22 +7131 t_x23 +418.3028169 t_x24
  +3647 t_x25 +5688.4859155 t_x26 +7832.5997653 t_x27 +4409.1255869 t_x28 +1053 t_x29 +2869 t_x30 +5410 t_x31
  +3948 t_x32 +6049 t_x33 +9317 t_x34 +6880 t_x35 +3779 t_x36 +3641 t_x37 +5567 t_x38 +2197 t_x39 +2842 t_x40
  +4846 t_x41 +4616 t_x42 +8807 t_x43 +3261 t_x44 +3553 t_x45 +5239 t_x46 +6665 t_x47 +3257.4906103 t_x48
  +7219.556338 t_x49 +2536 t_x50 +8013 t_x51 +3541 t_x52 +8080 t_x53 +5593.0586854 t_x54 +5036 t_x55 +1782 t_x56
  +3895 t_x57 +4205 t_x58 +7772 t_x59 +9326 t_x60 +4757 t_x61 +5355 t_x62 +1919 t_x63 +7510.5774648 t_x64
  +7341 t_x65 +8541 t_x66 +8352 t_x67 +3291 t_x68 +7328 t_x69 +4506 t_x70 +4429 t_x71 +4593 t_x72 +9138 t_x73
  +3731.7664319 t_x74 +5124.2922535 t_x75 +4378 t_x76 +3647 t_x77 +3795 t_x78 +2912 t_x79 +8830 t_x80
  +5445 t_x81 +6112 t_x83 +8841 t_x84 +1236 t_x85 +7010 t_x86 +2909 t_x87 +7622 t_x88 +7393 t_x89 +8317.6971831 t_x90
  +1950 t_x91 +4654 t_x92 +2255 t_x93 +7104 t_x94 +7534.7887324 t_x95 +2054 t_x96 +6682 t_x97 +3234 t_x98
  +2842 t_x99 +3974 t_x100 +3624 t_x101 +5415 t_x102 +2246 t_x103 +8590 t_x104 +2633 t_x105 +4655 t_x106
  +2923 t_x107 +6318 t_x108 +7440 t_x109 +4579 t_x110 +8342 t_x111 +3813.4002347 t_x112 +6268 t_x113 +8570 t_x114
  +9838 t_x115 +4876 t_x116 +418.3028169 t_x117 +4922 t_x118 +3590 t_x119 +7152 t_x120 +7056 t_x121 +9136 t_x122
  +7850 t_x123 +6863 t_x124 +9356 t_x125 +2933 t_x126 +2665 t_x127 +4063 t_x128 +7502 t_x129 +1966 t_x130
  +4540 t_x131 +1370 t_x132 +9828 t_x133 +9376 t_x134 +3856.6326291 t_x135 +1996 t_x136 +5320 t_x137 +3107.4788732 t_x138
  +1645 t_x139 +2890.0046948 t_x140 +4920 t_x141 +8107 t_x142 +6103 t_x143 +4970 t_x144 +1582 t_x145 +6146 t_x146
  +6295 t_x147 +8177 t_x148 +9936 t_x150 +1 t_x151 >= +157344.61033
 c1: +1 t_x149 +1 t_x1 +1 t_x2 +1 t_x3 +1 t_x4 +1 t_x5 +1 t_x6 +1 t_x7 +1 t_x8 +1 t_x9 +1 t_x10 +1 t_x11
  +1 t_x12 +1 t_x13 +1 t_x14 +1 t_x15 +1 t_x16 +1 t_x17 +1 t_x18 +1 t_x19 +1 t_x20 +1 t_x21 +1 t_x22 +1 t_x23
  +1 t_x24 +1 t_x25 +1 t_x26 +1 t_x27 +1 t_x28 +1 t_x29 +1 t_x30 +1 t_x31 +1 t_x32 +1 t_x33 +1 t_x34 +1 t_x35
  +1 t_x36 +1 t_x37 +1 t_x38 +1 t_x39 +1 t_x40 +1 t_x41 +1 t_x42 +1 t_x43 +1 t_x44 +1 t_x45 +1 t_x46 +1 t_x47
  +1 t_x48 +1 t_x49 +1 t_x50 +1 t_x51 +1 t_x52 +1 t_x53 +1 t_x54 +1 t_x55 +1 t_x56 +1 t_x57 +1 t_x58 +1 t_x59
  +1 t_x60 +1 t_x61 +1 t_x62 +1 t_x63 +1 t_x64 +1 t_x65 +1 t_x66 +1 t_x67 +1 t_x68 +1 t_x69 +1 t_x70 +1 t_x71
  +1 t_x72 +1 t_x73 +1 t_x74 +1 t_x75 +1 t_x76 +1 t_x77 +1 t_x78 +1 t_x79 +1 t_x80 +1 t_x81 +1 t_x82 +1 t_x83
  +1 t_x84 +1 t_x85 +1 t_x86 +1 t_x87 +1 t_x88 +1 t_x89 +1 t_x90 +1 t_x91 +1 t_x92 +1 t_x93 +1 t_x94 +1 t_x95
  +1 t_x96 +1 t_x97 +1 t_x98 +1 t_x99 +1 t_x100 +1 t_x101 +1 t_x102 +1 t_x103 +1 t_x104 +1 t_x105 +1 t_x106
  +1 t_x107 +1 t_x108 +1 t_x109 +1 t_x110 +1 t_x111 +1 t_x112 +1 t_x113 +1 t_x114 +1 t_x115 +1 t_x116
  +1 t_x117 +1 t_x118 +1 t_x119 +1 t_x120 +1 t_x121 +1 t_x122 +1 t_x123 +1 t_x124 +1 t_x125 +1 t_x126
  +1 t_x127 +1 t_x128 +1 t_x129 +1 t_x130 +1 t_x131 +1 t_x132 +1 t_x133 +1 t_x134 +1 t_x135 +1 t_x136
  +1 t_x137 +1 t_x138 +1 t_x139 +1 t_x140 +1 t_x141 +1 t_x142 +1 t_x143 +1 t_x144 +1 t_x145 +1 t_x146
  +1 t_x147 +1 t_x148 +1 t_x150 <= +20
 newcut_1: -0.4897450433259687 t_x149 -0.5987522136980249 t_x1 -0.5625042972443584 t_x2 -0.5294818146090554 t_x3 -0.4447613695112649 t_x4 -0.8400532183078928 t_x5 -0.5333859172086709 t_x6 -0.23645345409691376 t_x7 -0.2451136198453946 t_x8 -0.4560505141476774 t_x9 -0.7645730536481748 t_x10 -0.1916061671851381 t_x11 -0.660615549150269 t_x12 -0.49823623822679014 t_x13 -0.8974628145175285 t_x14 -0.6853466479562128 t_x15 -0.6778048961219215 t_x16 -0.6682529279474322 t_x17 -0.237921355033549 t_x18 -0.8817028804498864 t_x19 -0.8661203673202477 t_x20 -0.6373843921644426 t_x21 -0.40780101926328427 t_x22 -0.9165861699390006 t_x23 -0.5068121389272062 t_x24 -0.5639932943698134 t_x25 -0.5130841408951659 t_x26 -0.6877546305377754 t_x27 -0.5819061302498555 t_x28 -0.1628420452348268 t_x29 -0.2530909388850203 t_x30 -0.7590174133687986 t_x31 -0.6105416852678976 t_x32 -0.8012338950128836 t_x33 -0.9677355096915053 t_x34 -0.8003439621711094 t_x35 -0.5844065422055181 t_x36 -0.5630654194681903 t_x37 -0.5306561123347658 t_x38 -0.33975685981093495 t_x39 -0.42311325581017317 t_x40 -0.7494136288774651 t_x41 -0.713845090981919 t_x42 -0.6902198351828464 t_x43 -0.5043000090320705 t_x44 -0.5494565875777205 t_x45 -0.5942248002912673 t_x46 -0.6977801648670695 t_x47 -0.7671461330372711 t_x48 -0.8510233424209939 t_x49 -0.39218179175263135 t_x50 -0.8117694160213598 t_x51 -0.43512816295924717 t_x52 -0.7879114935587849 t_x53 -0.5177700829627121 t_x54 -0.5787242664276336 t_x55 -0.27557884578201464 t_x56 -0.4494309013211921 t_x57 -0.6502856602207472 t_x58 -0.7447294354919343 t_x59 -0.9317807111632846 t_x60 -0.516126065154842 t_x61 -0.525737733559821 t_x62 -0.2967653227024052 t_x63 -0.44102059994159143 t_x64 -0.7976676957962292 t_x65 -0.7268705387888442 t_x66 -0.7823933870817845 t_x67 -0.5089393835401853 t_x68 -0.8308713648492336 t_x69 -0.6951255313343584 t_x70 -0.6849263232146704 t_x71 -0.5066566354150976 t_x72 -0.7729931789985978 t_x73 -0.751371667334731 t_x74 -0.6676213064450123 t_x75 -0.6138523400050953 t_x76 -0.5639932943698134 t_x77 -0.4271002458625162 t_x78 -0.3450412535661619 t_x79 -1.0 t_x80 -0.6389361391878288 t_x81 -0.5920662322922993 t_x83 -0.8946557059632098 t_x84 -0.19114222973432662 t_x85 -0.753220493076556 t_x86 -0.43451717064179396 t_x87 -0.739728010325782 t_x88 -0.8253654596293761 t_x89 -0.8576173249418513 t_x90 -0.30155934302745707 t_x91 -0.7121629274336473 t_x92 -0.3487263171932901 t_x93 -0.4341800768035106 t_x94 -0.6104781783232721 t_x95 -0.31764250798892146 t_x96 -0.6968891564560104 t_x97 -0.5001245719747672 t_x98 -0.42311325581017317 t_x99 -0.6145624765082638 t_x100 -0.5604364405802587 t_x101 -0.7054468866703644 t_x102 -0.27945605799477097 t_x103 -0.7620094414235216 t_x104 -0.3650226563717787 t_x105 -0.6258735073069417 t_x106 -0.4520297229073113 t_x107 -0.7628424283457715 t_x108 -0.7484633727516357 t_x109 -0.6773991178109294 t_x110 -0.8776947789256682 t_x111 -0.36531937725237495 t_x112 -0.8363423648404319 t_x113 -0.9345298513968988 t_x114 -0.9921438788067604 t_x115 -0.6070270577252883 t_x116 -0.5068121389272062 t_x117 -0.6670020474658342 t_x118 -0.5135930944734964 t_x119 -0.8040403914712059 t_x120 -0.7294123366586234 t_x121 -0.8735703206723439 t_x122 -0.8443121815991612 t_x123 -0.6391025834086779 t_x124 -0.9465319191714032 t_x125 -0.45357618107668285 t_x126 -0.4121311021375247 t_x127 -0.6273718457646014 t_x128 -0.6395258215540535 t_x129 -0.3040336760984516 t_x130 -0.7020920088946949 t_x131 -0.21186476920390573 t_x132 -0.9873236969477865 t_x133 -0.7435795786108295 t_x134 -0.6375400693688362 t_x135 -0.3086730506065663 t_x136 -0.6226436784377863 t_x137 -0.5080947104432291 t_x138 -0.25439236886162403 t_x139 -0.6007272809078983 t_x140 -0.7608574193308147 t_x141 -0.8221077867869138 t_x142 -0.8449488792746357 t_x143 -0.7685897101776726 t_x144 -0.237921355033549 t_x145 -0.6736076046424524 t_x146 -0.525859171720433 t_x147 -0.8163632598146722 t_x148 -0.8373804584489899 t_x150 -0.00015464581693715748 t_x151 <= -15.294896354748097
Bounds
 0 <= t_x149 <= 1
 0 <= t_x1 <= 1
 0 <= t_x2 <= 1
 0 <= t_x3 <= 1
 0 <= t_x4 <= 1
 0 <= t_x5 <= 1
 0 <= t_x6 <= 1
 0 <= t_x7 <= 1
 0 <= t_x8 <= 1
 0 <= t_x9 <= 1
 0 <= t_x10 <= 1
 0 <= t_x11 <= 1
 0 <= t_x12 <= 1
 0 <= t_x13 <= 1
 0 <= t_x14 <= 1
 0 <= t_x15 <= 1
 0 <= t_x16 <= 1
 0 <= t_x17 <= 1
 0 <= t_x18 <= 1
 0 <= t_x19 <= 1
 0 <= t_x20 <= 1
 0 <= t_x21 <= 1
 0 <= t_x22 <= 1
 0 <= t_x23 <= 1
 0 <= t_x24 <= 1
 0 <= t_x25 <= 1
 0 <= t_x26 <= 1
 0 <= t_x27 <= 1
 0 <= t_x28 <= 1
 0 <= t_x29 <= 1
 0 <= t_x30 <= 1
 0 <= t_x31 <= 1
 0 <= t_x32 <= 1
 0 <= t_x33 <= 1
 0 <= t_x34 <= 1
 0 <= t_x35 <= 1
 0 <= t_x36 <= 1
 0 <= t_x37 <= 1
 0 <= t_x38 <= 1
 0 <= t_x39 <= 1
 0 <= t_x40 <= 1
 0 <= t_x41 <= 1
 0 <= t_x42 <= 1
 0 <= t_x43 <= 1
 0 <= t_x44 <= 1
 0 <= t_x45 <= 1
 0 <= t_x46 <= 1
 0 <= t_x47 <= 1
 0 <= t_x48 <= 1
 0 <= t_x49 <= 1
 0 <= t_x50 <= 1
 0 <= t_x51 <= 1
 0 <= t_x52 <= 1
 0 <= t_x53 <= 1
 0 <= t_x54 <= 1
 0 <= t_x55 <= 1
 0 <= t_x56 <= 1
 0 <= t_x57 <= 1
 0 <= t_x58 <= 1
 0 <= t_x59 <= 1
 0 <= t_x60 <= 1
 0 <= t_x61 <= 1
 0 <= t_x62 <= 1
 0 <= t_x63 <= 1
 0 <= t_x64 <= 1
 0 <= t_x65 <= 1
 0 <= t_x66 <= 1
 0 <= t_x67 <= 1
 0 <= t_x68 <= 1
 0 <= t_x69 <= 1
 0 <= t_x70 <= 1
 0 <= t_x71 <= 1
 0 <= t_x72 <= 1
 0 <= t_x73 <= 1
 0 <= t_x74 <= 1
 0 <= t_x75 <= 1
 0 <= t_x76 <= 1
 0 <= t_x77 <= 1
 0 <= t_x78 <= 1
 0 <= t_x79 <= 1
 0 <= t_x80 <= 1
 0 <= t_x81 <= 1
 0 <= t_x82 <= 1
 0 <= t_x83 <= 1
 0 <= t_x84 <= 1
 0 <= t_x85 <= 1
 0 <= t_x86 <= 1
 0 <= t_x87 <= 1
 0 <= t_x88 <= 1
 0 <= t_x89 <= 1
 0 <= t_x90 <= 1
 0 <= t_x91 <= 1
 0 <= t_x92 <= 1
 0 <= t_x93 <= 1
 0 <= t_x94 <= 1
 0 <= t_x95 <= 1
 0 <= t_x96 <= 1
 0 <= t_x97 <= 1
 0 <= t_x98 <= 1
 0 <= t_x99 <= 1
 0 <= t_x100 <= 1
 0 <= t_x101 <= 1
 0 <= t_x102 <= 1
 0 <= t_x103 <= 1
 0 <= t_x104 <= 1
 0 <= t_x105 <= 1
 0 <= t_x106 <= 1
 0 <= t_x107 <= 1
 0 <= t_x108 <= 1
 0 <= t_x109 <= 1
 0 <= t_x110 <= 1
 0 <= t_x111 <= 1
 0 <= t_x112 <= 1
 0 <= t_x113 <= 1
 0 <= t_x114 <= 1
 0 <= t_x115 <= 1
 0 <= t_x116 <= 1
 0 <= t_x117 <= 1
 0 <= t_x118 <= 1
 0 <= t_x119 <= 1
 0 <= t_x120 <= 1
 0 <= t_x121 <= 1
 0 <= t_x122 <= 1
 0 <= t_x123 <= 1
 0 <= t_x124 <= 1
 0 <= t_x125 <= 1
 0 <= t_x126 <= 1
 0 <= t_x127 <= 1
 0 <= t_x128 <= 1
 0 <= t_x129 <= 1
 0 <= t_x130 <= 1
 0 <= t_x131 <= 1
 0 <= t_x132 <= 1
 0 <= t_x133 <= 1
 0 <= t_x134 <= 1
 0 <= t_x135 <= 1
 0 <= t_x136 <= 1
 0 <= t_x137 <= 1
 0 <= t_x138 <= 1
 0 <= t_x139 <= 1
 0 <= t_x140 <= 1
 0 <= t_x141 <= 1
 0 <= t_x142 <= 1
 0 <= t_x143 <= 1
 0 <= t_x144 <= 1
 0 <= t_x145 <= 1
 0 <= t_x146 <= 1
 0 <= t_x147 <= 1
 0 <= t_x148 <= 1
 0 <= t_x150 <= 1
 0 <= t_x151 <= 1000000000000
Binaries
 t_x149 t_x1 t_x2 t_x3 t_x4 t_x5 t_x6 t_x7 t_x8 t_x9 t_x10 t_x11 t_x12 t_x13 t_x14 t_x15 t_x16 t_x17 t_x18
 t_x19 t_x20 t_x21 t_x22 t_x23 t_x24 t_x25 t_x26 t_x27 t_x28 t_x29 t_x30 t_x31 t_x32 t_x33 t_x34 t_x35
 t_x36 t_x37 t_x38 t_x39 t_x40 t_x41 t_x42 t_x43 t_x44 t_x45 t_x46 t_x47 t_x48 t_x49 t_x50 t_x51 t_x52
 t_x53 t_x54 t_x55 t_x56 t_x57 t_x58 t_x59 t_x60 t_x61 t_x62 t_x63 t_x64 t_x65 t_x66 t_x67 t_x68 t_x69
 t_x70 t_x71 t_x72 t_x73 t_x74 t_x75 t_x76 t_x77 t_x78 t_x79 t_x80 t_x81 t_x82 t_x83 t_x84 t_x85 t_x86
 t_x87 t_x88 t_x89 t_x90 t_x91 t_x92 t_x93 t_x94 t_x95 t_x96 t_x97 t_x98 t_x99 t_x100 t_x101 t_x102 t_x103
 t_x104 t_x105 t_x106 t_x107 t_x108 t_x109 t_x110 t_x111 t_x112 t_x113 t_x114 t_x115 t_x116 t_x117 t_x118
 t_x119 t_x120 t_x121 t_x122 t_x123 t_x124 t_x125 t_x126 t_x127 t_x128 t_x129 t_x130 t_x131 t_x132 t_x133
 t_x134 t_x135 t_x136 t_x137 t_x138 t_x139 t_x140 t_x141 t_x142 t_x143 t_x144 t_x145 t_x146 t_x147 t_x148
 t_x150
End
